c WARNING: for repeatability, setting FPU to use double precision
d VARIABLES            122454       
d CONSTRAINTS          543080       
c ============================[ Problem Statistics ]=============================
c |                                                                             |
c |  Number of variables:        122454                                         |
c |  Number of clauses:          543080                                         |
c |  Parse time:                   0.09 s                                       |
c |                                                                             |
c ============================[ Search Statistics ]==============================
c | Conflicts |          ORIGINAL         |          LEARNT          | Progress |
c |           |    Vars  Clauses Literals |    Limit  Clauses Lit/Cl |          |
c ===============================================================================
c |       100 |  103430   489200  1186072 |   179373       99     91 | 15.536 % |
c |       250 |  103430   489200  1186072 |   197310      249     59 | 15.536 % |
c |       475 |  103430   488520  1184440 |   217041      474     68 | 15.536 % |
c |       812 |  103430   488520  1184440 |   238745      811     77 | 15.536 % |
c |      1318 |  103423   488485  1184356 |   262620     1316     96 | 15.541 % |
c |      2077 |  103423   488485  1184356 |   288882     2075     97 | 15.541 % |
c |      3216 |  103423   488485  1184356 |   317770     3214    147 | 15.541 % |
c |      4924 |  103423   488485  1184356 |   349547     4922    140 | 15.541 % |
c |      7486 |  103423   488485  1184356 |   384502     7484    161 | 15.541 % |
c |     11330 |  103397   488355  1184044 |   422952    11325    171 | 15.563 % |
c ===============================================================================
c restarts              : 62
c conflicts             : 14521          (2303 /sec)
c decisions             : 84016          (0.00 % random) (13327 /sec)
c propagations          : 33894067       (5376261 /sec)
c conflict literals     : 2359520        (9.96 % deleted)
d RESTARTS             62
d FAILURES             14521        
d NODES                84016        
d BACKTRACKS           84016        
d PROPAGATIONS         33894067     
d NOGOODSIZE           162.49 
d MEMORY               52.00 
d TIME                 6.30439 

s SATISFIABLE
